TCS_Benchmarks/redos_fix/snort3_output_distinct_1181_1180_32_0.txt
([^}]*)([^;}]{12})
([^}]*)(\\[sS][vV][^}]*(\d+)?;(\d+)?;)([^;}]{12})